%mem=500MB
#scan HF/6-31G(d)

اسکن طول پیوند مولکول هیدروژن

0 1
H
H 1 B

B=0.5   S    120     0.01