%mem=500MB
#opt HF/6-31G(d)

Hydrogen molecule optimization

0 1
H
H 1 B

B=0.7
