%mem=500MB
#opt HF/6-31G(d)

بهینه سازی مولکول هیدروژن

0 1
H
H 1 B

B=0.7